30
1000 1000 1000 
541 745 526 
344 301 614 
413 294 571 
266 341 530 
543 388 340 
367 701 272 
526 707 526 
286 706 650 
614 289 419 
348 592 541 
673 431 474 
475 362 562 
562 439 340 
530 638 541 
609 375 367 
540 274 286 
486 634 486 
272 377 540 
623 306 509 
266 714 673 
341 336 475 
340 296 475 
531 479 286 
571 589 673 
674 496 474 
560 497 413 
509 389 419 
650 332 509 
474 285 623 
419 503 530 
gcut11_3d
